results_rootrelaxation/bin018_090_014.srr.sol
solution status: optimal solution found
objective value:                                   55
_var2801_                         0.00654109288813121 	(obj:4)
_var2983_                           0.201520184911045 	(obj:4)
_var2985_                            0.13697469019346 	(obj:4)
_var2987_                           0.467213462356749 	(obj:3)
_var3056_                           0.103737884456259 	(obj:5)
_var3078_                           0.179204385008987 	(obj:2)
_var3102_                           0.291455133911565 	(obj:2)
_var3121_                          0.0976479505763248 	(obj:5)
_var3133_                           0.150881149892405 	(obj:4)
_var3141_                           0.206201226895904 	(obj:4)
_var3150_                           0.233494030517741 	(obj:3)
_var3161_                         0.00358094099084499 	(obj:5)
_var3188_                           0.201394922358605 	(obj:3)
_var3193_                           0.452908585776886 	(obj:3)
_var3197_                           0.167192543688639 	(obj:2)
_var3266_                           0.500865434163906 	(obj:2)
_var3310_                          0.0505440635528244 	(obj:3)
_var3325_                          0.0244468669394744 	(obj:4)
_var3352_                           0.369343852299249 	(obj:4)
_var3355_                         0.00179305414693809 	(obj:3)
_var3356_                          0.0533169452615041 	(obj:4)
_var3374_                           0.207679431924521 	(obj:2)
_var3375_                           0.449295037322191 	(obj:3)
_var3387_                            0.54709141422311 	(obj:4)
_var3421_                           0.452908585776886 	(obj:4)
_var3425_                          0.0268152735498801 	(obj:3)
_var3428_                          0.0244468669394782 	(obj:4)
_var3432_                           0.179204385008976 	(obj:2)
_var3434_                           0.186541777110354 	(obj:2)
_var3446_                          0.0804746862733966 	(obj:3)
_var3459_                           0.111203390035857 	(obj:3)
_var3466_                           0.132346212153081 	(obj:2)
_var3475_                          0.0224022185904606 	(obj:3)
_var3488_                          0.0176965873705263 	(obj:4)
_var3491_                          0.0507307991928821 	(obj:4)
_var3496_                           0.215087028073796 	(obj:3)
_var3501_                           0.473803733714974 	(obj:4)
_var3512_                         0.00937972407315179 	(obj:5)
_var3537_                            0.28024529365603 	(obj:2)
_var3541_                          0.0176965873705378 	(obj:5)
_var3543_                           0.527976491265818 	(obj:3)
_var3545_                           0.273789015810536 	(obj:3)
_var3547_                           0.234330599057918 	(obj:3)
_var3548_                          0.0757191638519701 	(obj:3)
_var3549_                           0.102498266280759 	(obj:5)
_var3551_                           0.146937784958942 	(obj:2)
_var3552_                         0.00182138522209685 	(obj:4)
_var3556_                           0.323246163901157 	(obj:4)
_var3558_                           0.112727744425919 	(obj:4)
_var3559_                           0.062223593834297 	(obj:3)
_var3569_                           0.106465685900648 	(obj:5)
_var3571_                           0.373357777646344 	(obj:2)
_var3573_                           0.289713396429056 	(obj:4)
_var3575_                            0.16326093882414 	(obj:3)
_var3580_                            0.41749812729811 	(obj:4)
_var3581_                            0.21597526964407 	(obj:3)
_var3585_                          0.0328316179074933 	(obj:3)
_var3587_                          0.0244468669394679 	(obj:1)
_var3592_                          0.0331760453810684 	(obj:4)
_var3593_                           0.613194048977495 	(obj:3)
_var3595_                          0.0509485386510983 	(obj:3)
_var3597_                           0.103447446390096 	(obj:4)
_var3601_                           0.340942751271691 	(obj:3)
_var3609_                          0.0416441859287965 	(obj:3)
_var3614_                           0.134400304193813 	(obj:5)
_var3616_                         0.000933321834601764 	(obj:3)
_var3619_                          0.0555501110791951 	(obj:3)
_var3621_                           0.548191693400049 	(obj:2)
_var3636_                           0.287625806010181 	(obj:3)
_var3646_                           0.100606855193611 	(obj:3)
_var3651_                           0.313861094342123 	(obj:4)
_var3657_                           0.103737884456263 	(obj:3)
_var3660_                          0.0226538127925323 	(obj:5)
_var3662_                           0.317632869178856 	(obj:4)
_var3670_                         0.00905097669155795 	(obj:3)
_var3672_                           0.240819662550129 	(obj:1)
_var3677_                          0.0861020574418575 	(obj:5)
_var3682_                         0.00703091757761002 	(obj:5)
_var3683_                           0.226857966163801 	(obj:3)
_var3684_                           0.034868960759143 	(obj:3)
_var3690_                            0.13971692444976 	(obj:3)
_var3693_                           0.138363447425003 	(obj:4)
_var3694_                          0.0348689607591481 	(obj:3)
_var3695_                          0.0542246087638873 	(obj:4)
_var3701_                           0.139716924449756 	(obj:5)
_var3702_                            0.20614866295142 	(obj:3)
_var3703_                          0.0244468669394737 	(obj:3)
_var3704_                          0.0641493942139139 	(obj:5)
_var3711_                           0.214535730296711 	(obj:4)
_var3713_                         0.00977119182242221 	(obj:3)
_var3715_                          0.0691739727579639 	(obj:5)
_var3716_                          0.0833022701209412 	(obj:3)
_var3717_                          0.0852098958485432 	(obj:3)
_var3720_                           0.076901228962835 	(obj:3)
_var3721_                          0.0425940787696595 	(obj:5)
_var3724_                           0.255679756930075 	(obj:3)
_var3734_                          0.0264213112405562 	(obj:3)
_var3738_                           0.111474049804229 	(obj:5)
_var3746_                          0.0244468669394744 	(obj:3)
_var3748_                          0.0755210245086604 	(obj:3)
_var3752_                           0.127443510687057 	(obj:5)
_var3754_                          0.0551050102882647 	(obj:3)
_var3755_                          0.0663713345112493 	(obj:4)
_var3767_                           0.153969415268046 	(obj:3)
_var3771_                           0.129739396872385 	(obj:4)
_var3777_                          0.0226538127925247 	(obj:3)
_var3783_                          0.0246457190141697 	(obj:3)
